min: 94 x1_1 + 65 x1_2 + 85 x1_3 + 5 x1_4 + 35 x1_5 + 38 x1_6 + 18 x2_1 + 10 x2_2 + 53 x2_3 + 37 x2_4 + 79 x2_5 + 46 x2_6 + 52 x3_1 + 3 x3_2 + 41 x3_3 + 75 x3_4 + 71 x3_5 + 66 x3_6 + 71 x4_1 + 46 x4_2 + 34 x4_3 + 80 x4_4 + 67 x4_5 + 38 x4_6 + 42 x5_1 + 65 x5_2 + 79 x5_3 + 18 x5_4 + 38 x5_5 + 26 x5_6 + 85 x6_1 + 69 x6_2 + 35 x6_3 + 32 x6_4 + 12 x6_5 + 16 x6_6;

st
x1_1 + x1_2 + x1_3 + x1_4 + x1_5 + x1_6 = 4693;
x2_1 + x2_2 + x2_3 + x2_4 + x2_5 + x2_6 = 4864;
x3_1 + x3_2 + x3_3 + x3_4 + x3_5 + x3_6 = 1733;
x4_1 + x4_2 + x4_3 + x4_4 + x4_5 + x4_6 = 584;
x5_1 + x5_2 + x5_3 + x5_4 + x5_5 + x5_6 = 2047;
x6_1 + x6_2 + x6_3 + x6_4 + x6_5 + x6_6 = 1495;

x1_1 + x2_1 + x3_1 + x4_1 + x5_1 + x6_1 >= 612;
x1_2 + x2_2 + x3_2 + x4_2 + x5_2 + x6_2 >= 1080;
x1_3 + x2_3 + x3_3 + x4_3 + x5_3 + x6_3 >= 3107;
x1_4 + x2_4 + x3_4 + x4_4 + x5_4 + x6_4 >= 3576;
x1_5 + x2_5 + x3_5 + x4_5 + x5_5 + x6_5 >= 2842;
x1_6 + x2_6 + x3_6 + x4_6 + x5_6 + x6_6 >= 2329;

x1_1 >= 0;
x1_2 >= 0;
x1_3 >= 0;
x1_4 >= 0;
x1_5 >= 0;
x1_6 >= 0;
x2_1 >= 0;
x2_2 >= 0;
x2_3 >= 0;
x2_4 >= 0;
x2_5 >= 0;
x2_6 >= 0;
x3_1 >= 0;
x3_2 >= 0;
x3_3 >= 0;
x3_4 >= 0;
x3_5 >= 0;
x3_6 >= 0;
x4_1 >= 0;
x4_2 >= 0;
x4_3 >= 0;
x4_4 >= 0;
x4_5 >= 0;
x4_6 >= 0;
x5_1 >= 0;
x5_2 >= 0;
x5_3 >= 0;
x5_4 >= 0;
x5_5 >= 0;
x5_6 >= 0;
x6_1 >= 0;
x6_2 >= 0;
x6_3 >= 0;
x6_4 >= 0;
x6_5 >= 0;
x6_6 >= 0;